400, 31999400
139, 160401
488, 160402
864, 160403
752, 160404
137, 160405
173, 160406
972, 160407
685, 160408
942, 160409
580, 160410
436, 160411
587, 160412
392, 160413
364, 160414
520, 160415
481, 160416
715, 160417
469, 160418
541, 160419
562, 160420
682, 160421
185, 160422
703, 160423
601, 160424
812, 160425
310, 160426
933, 160427
363, 160428
72, 160429
42, 160430
721, 160431
983, 160432
256, 160433
293, 160434
20, 160435
880, 160436
130, 160437
754, 160438
581, 160439
369, 160440
625, 160441
37, 160442
827, 160443
479, 160444
920, 160445
229, 160446
22, 160447
811, 160448
775, 160449
283, 160450
457, 160451
557, 160452
979, 160453
305, 160454
459, 160455
649, 160456
242, 160457
228, 160458
208, 160459
885, 160460
796, 160461
146, 160462
108, 160463
448, 160464
179, 160465
372, 160466
792, 160467
397, 160468
539, 160469
541, 160470
562, 160471
45, 160472
674, 160473
120, 160474
561, 160475
200, 160476
544, 160477
181, 160478
951, 160479
916, 160480
72, 160481
228, 160482
877, 160483
475, 160484
77, 160485
271, 160486
921, 160487
657, 160488
669, 160489
644, 160490
922, 160491
756, 160492
473, 160493
433, 160494
458, 160495
666, 160496
706, 160497
718, 160498
659, 160499
61, 160500
213, 160501
126, 160502
466, 160503
354, 160504
840, 160505
253, 160506
895, 160507
685, 160508
946, 160509
330, 160510
378, 160511
854, 160512
262, 160513
974, 160514
895, 160515
918, 160516
632, 160517
587, 160518
67, 160519
34, 160520
69, 160521
662, 160522
388, 160523
471, 160524
431, 160525
549, 160526
27, 160527
531, 160528
263, 160529
737, 160530
845, 160531
618, 160532
273, 160533
493, 160534
997, 160535
854, 160536
467, 160537
620, 160538
500, 160539
254, 160540
181, 160541
950, 160542
145, 160543
287, 160544
745, 160545
707, 160546
737, 160547
293, 160548
900, 160549
326, 160550
583, 160551
387, 160552
723, 160553
227, 160554
780, 160555
949, 160556
14, 160557
520, 160558
1, 160559
805, 160560
857, 160561
175, 160562
454, 160563
283, 160564
853, 160565
506, 160566
684, 160567
963, 160568
3, 160569
405, 160570
800, 160571
827, 160572
329, 160573
984, 160574
787, 160575
153, 160576
433, 160577
906, 160578
513, 160579
632, 160580
529, 160581
478, 160582
999, 160583
323, 160584
661, 160585
929, 160586
283, 160587
81, 160588
559, 160589
417, 160590
519, 160591
63, 160592
487, 160593
999, 160594
686, 160595
16, 160596
579, 160597
605, 160598
165, 160599
264, 160600
608, 160601
409, 160602
147, 160603
628, 160604
870, 160605
528, 160606
968, 160607
291, 160608
671, 160609
523, 160610
137, 160611
95, 160612
895, 160613
700, 160614
74, 160615
996, 160616
845, 160617
25, 160618
666, 160619
304, 160620
352, 160621
944, 160622
690, 160623
489, 160624
819, 160625
145, 160626
446, 160627
129, 160628
130, 160629
415, 160630
282, 160631
749, 160632
842, 160633
926, 160634
333, 160635
817, 160636
452, 160637
814, 160638
993, 160639
581, 160640
305, 160641
54, 160642
144, 160643
611, 160644
775, 160645
377, 160646
48, 160647
77, 160648
602, 160649
68, 160650
304, 160651
219, 160652
787, 160653
173, 160654
968, 160655
819, 160656
524, 160657
525, 160658
436, 160659
31, 160660
890, 160661
671, 160662
593, 160663
66, 160664
449, 160665
78, 160666
478, 160667
666, 160668
203, 160669
514, 160670
596, 160671
991, 160672
545, 160673
483, 160674
486, 160675
554, 160676
95, 160677
764, 160678
561, 160679
239, 160680
868, 160681
97, 160682
172, 160683
162, 160684
791, 160685
416, 160686
449, 160687
901, 160688
483, 160689
947, 160690
946, 160691
472, 160692
395, 160693
300, 160694
940, 160695
879, 160696
110, 160697
160, 160698
479, 160699
480, 160700
915, 160701
548, 160702
43, 160703
1, 160704
206, 160705
826, 160706
883, 160707
862, 160708
489, 160709
117, 160710
781, 160711
136, 160712
99, 160713
744, 160714
456, 160715
174, 160716
804, 160717
26, 160718
381, 160719
407, 160720
190, 160721
4, 160722
414, 160723
598, 160724
45, 160725
176, 160726
138, 160727
941, 160728
863, 160729
556, 160730
422, 160731
777, 160732
125, 160733
621, 160734
92, 160735
716, 160736
632, 160737
364, 160738
32, 160739
589, 160740
220, 160741
196, 160742
741, 160743
473, 160744
799, 160745
953, 160746
659, 160747
158, 160748
794, 160749
145, 160750
868, 160751
330, 160752
190, 160753
462, 160754
690, 160755
480, 160756
137, 160757
370, 160758
363, 160759
34, 160760
982, 160761
970, 160762
749, 160763
151, 160764
640, 160765
443, 160766
921, 160767
166, 160768
935, 160769
839, 160770
483, 160771
441, 160772
616, 160773
793, 160774
343, 160775
515, 160776
496, 160777
612, 160778
390, 160779
26, 160780
945, 160781
391, 160782
23, 160783
813, 160784
604, 160785
627, 160786
125, 160787
45, 160788
101, 160789
731, 160790
319, 160791
760, 160792
162, 160793
346, 160794
954, 160795
625, 160796
683, 160797
504, 160798
209, 160799
305, 160800
